Solver command line: []

Read LP format model from file C:\Users\wlhlm\AppData\Local\Temp\tmput89j3c5.pyomo.lp
Reading time = 52.65 seconds
objective: 1002984 rows, 875999 columns, 78984486 nonzeros
Set parameter MIPGap to value 0.03
Gurobi Optimizer version 12.0.1 build v12.0.1rc0 (win64 - Windows 11.0 (26100.2))

CPU model: Intel(R) Core(TM) Ultra 7 258V, instruction set [SSE2|AVX|AVX2]
Thread count: 8 physical cores, 8 logical processors, using up to 8 threads

Non-default parameters:
MIPGap  0.03

Optimize a model with 1002984 rows, 875999 columns and 78984486 nonzeros
Model fingerprint: 0xab7c8f36
Model has 8759 quadratic constraints
Variable types: 753360 continuous, 122639 integer (105120 binary)
Coefficient statistics:
  Matrix range     [8e-03, 2e+02]
  QMatrix range    [1e+00, 1e+00]
  Objective range  [1e-02, 4e+02]
  Bounds range     [1e+00, 3e+00]
  RHS range        [8e-05, 1e+04]
Presolve removed 157680 rows and 122640 columns (presolve time = 9s)...
Presolve removed 617548 rows and 494907 columns (presolve time = 14s)...
Presolve removed 687444 rows and 547469 columns (presolve time = 20s)...
Presolve removed 687747 rows and 554603 columns (presolve time = 20s)...
Presolve removed 699795 rows and 557388 columns (presolve time = 26s)...
Presolve removed 702923 rows and 560516 columns (presolve time = 33s)...
Presolve removed 702923 rows and 560516 columns (presolve time = 36s)...
Presolve removed 702923 rows and 560516 columns (presolve time = 42s)...
Presolve removed 702923 rows and 560516 columns (presolve time = 46s)...
Presolve removed 711682 rows and 560516 columns (presolve time = 57s)...
Presolve removed 711682 rows and 560516 columns (presolve time = 61s)...
Presolve removed 711682 rows and 560517 columns (presolve time = 65s)...
Presolve removed 711682 rows and 560517 columns (presolve time = 74s)...
Presolve removed 807215 rows and 655935 columns (presolve time = 75s)...
Presolve removed 798456 rows and 655935 columns
Presolve time: 75.50s
Presolved: 204528 rows, 220064 columns, 635081 nonzeros
Variable types: 148351 continuous, 71713 integer (62954 binary)
Performing another presolve...
Presolve removed 61319 rows and 61320 columns (presolve time = 7s)...
Presolve removed 61319 rows and 61320 columns
Presolve time: 7.22s
Deterministic concurrent LP optimizer: primal and dual simplex
Showing primal log only...


Root simplex log...

Iteration    Objective       Primal Inf.    Dual Inf.      Time
       0    6.2913922e+07   2.897429e+07   4.412301e+13     85s
Concurrent spin time: 0.01s

Solved with dual simplex

Root simplex log...

Iteration    Objective       Primal Inf.    Dual Inf.      Time
   56446    5.2901527e+07   0.000000e+00   0.000000e+00     89s

Root relaxation: objective 5.290153e+07, 56446 iterations, 4.21 seconds (4.38 work units)
Total elapsed time = 88.93s (DegenMoves)
Total elapsed time = 90.33s (DegenMoves)

    Nodes    |    Current Node    |     Objective Bounds      |     Work
 Expl Unexpl |  Obj  Depth IntInf | Incumbent    BestBd   Gap | It/Node Time

     0     0 5.2902e+07    0  477          - 5.2902e+07      -     -   94s
H    0     0                    5.309009e+07 5.2902e+07  0.36%     -   95s

Explored 1 nodes (64667 simplex iterations) in 96.43 seconds (56.38 work units)
Thread count was 8 (of 8 available processors)

Solution count 1: 5.30901e+07 

Optimal solution found (tolerance 3.00e-02)
Best objective 5.309008802495e+07, best bound 5.290152669224e+07, gap 0.3552%

